p edge 20 36 8
v 3 4 5 8
v 3 6 7 11
v 2 12 14
v 2 3 16
v 3 1 15 20
v 1 17
v 4 9 10 18 19
v 2 2 13
e 1 4
e 1 12
e 1 17
e 1 20
e 2 11
e 2 14
e 2 16
e 2 17
e 2 18
e 3 11
e 3 14
e 3 15
e 3 16
e 4 8
e 4 13
e 4 17
e 6 8
e 6 13
e 6 15
e 7 13
e 7 14
e 7 16
e 9 10
e 9 12
e 9 13
e 10 14
e 11 20
e 12 13
e 12 17
e 12 20
e 13 15
e 13 16
e 15 17
e 16 19
e 17 18
e 17 19
